p edge 472 1314
d 0.5
e 174 1
e 287 1
e 296 1
e 368 1
e 415 1
e 343 2
e 414 2
e 168 3
e 199 3
e 202 3
e 241 3
e 249 3
e 265 3
e 267 3
e 273 3
e 289 3
e 387 3
e 434 3
e 156 4
e 237 4
e 441 4
e 459 4
e 9 5
e 17 5
e 73 5
e 242 5
e 265 5
e 351 5
e 375 5
e 405 5
e 426 5
e 27 7
e 35 7
e 62 7
e 71 7
e 153 7
e 264 7
e 266 7
e 278 7
e 284 7
e 312 7
e 377 7
e 419 7
e 434 7
e 151 8
e 200 8
e 444 8
e 14 9
e 17 9
e 38 9
e 71 9
e 104 9
e 117 9
e 128 9
e 130 9
e 136 9
e 153 9
e 166 9
e 168 9
e 202 9
e 216 9
e 237 9
e 249 9
e 257 9
e 265 9
e 269 9
e 300 9
e 301 9
e 311 9
e 330 9
e 351 9
e 360 9
e 365 9
e 405 9
e 422 9
e 426 9
e 433 9
e 434 9
e 437 9
e 441 9
e 459 9
e 77 10
e 135 10
e 304 10
e 325 10
e 357 10
e 385 10
e 389 10
e 390 10
e 403 11
e 69 12
e 352 12
e 146 14
e 237 14
e 238 14
e 316 14
e 328 14
e 375 14
e 216 15
e 357 15
e 363 15
e 73 16
e 97 16
e 316 16
e 55 17
e 71 17
e 97 17
e 128 17
e 147 17
e 153 17
e 242 17
e 269 17
e 280 17
e 294 17
e 301 17
e 317 17
e 324 17
e 337 17
e 351 17
e 381 17
e 382 17
e 395 17
e 396 17
e 403 17
e 405 17
e 422 17
e 426 17
e 461 17
e 339 18
e 143 19
e 327 19
e 379 19
e 330 20
e 367 20
e 426 20
e 432 20
e 235 21
e 69 23
e 98 23
e 196 23
e 330 23
e 336 23
e 380 23
e 414 23
e 449 23
e 456 23
e 140 24
e 168 24
e 195 24
e 241 24
e 255 24
e 280 24
e 387 24
e 429 24
e 45 25
e 335 25
e 421 25
e 460 25
e 28 26
e 123 26
e 62 27
e 175 27
e 264 27
e 266 27
e 123 28
e 121 30
e 127 30
e 202 30
e 151 31
e 193 31
e 203 31
e 397 31
e 441 31
e 257 32
e 368 32
e 374 32
e 175 33
e 197 33
e 387 33
e 429 33
e 458 33
e 118 34
e 62 35
e 312 35
e 45 36
e 50 36
e 222 36
e 235 36
e 329 36
e 341 36
e 87 37
e 60 38
e 71 38
e 75 38
e 90 38
e 153 38
e 164 38
e 175 38
e 188 38
e 198 38
e 216 38
e 218 38
e 271 38
e 286 38
e 287 38
e 289 38
e 301 38
e 319 38
e 368 38
e 395 38
e 405 38
e 414 38
e 426 38
e 434 38
e 459 38
e 463 38
e 465 38
e 57 39
e 327 39
e 73 40
e 112 40
e 188 40
e 189 40
e 269 40
e 395 40
e 407 40
e 434 40
e 387 41
e 70 42
e 127 42
e 301 43
e 353 43
e 307 44
e 460 44
e 49 45
e 283 45
e 421 45
e 460 45
e 292 46
e 295 46
e 311 46
e 380 46
e 456 46
e 167 47
e 435 47
e 71 48
e 129 48
e 153 48
e 188 48
e 351 48
e 175 49
e 293 49
e 395 49
e 403 49
e 440 49
e 329 50
e 104 51
e 117 51
e 128 51
e 152 51
e 153 51
e 159 51
e 165 51
e 175 51
e 214 51
e 263 51
e 269 51
e 301 51
e 351 51
e 356 51
e 370 51
e 403 51
e 405 51
e 314 53
e 335 53
e 453 53
e 155 54
e 286 54
e 90 55
e 97 55
e 102 55
e 125 55
e 128 55
e 317 55
e 396 55
e 447 55
e 465 55
e 286 56
e 330 56
e 347 56
e 350 56
e 465 56
e 327 57
e 140 58
e 197 59
e 355 59
e 198 60
e 319 60
e 352 61
e 71 62
e 146 62
e 152 62
e 153 62
e 175 62
e 184 62
e 190 62
e 198 62
e 214 62
e 251 62
e 252 62
e 258 62
e 264 62
e 284 62
e 312 62
e 326 62
e 356 62
e 376 62
e 377 62
e 419 62
e 462 62
e 465 62
e 73 63
e 90 63
e 201 63
e 218 63
e 117 64
e 152 64
e 182 64
e 214 64
e 314 64
e 356 64
e 370 64
e 407 64
e 459 64
e 146 65
e 284 65
e 377 65
e 311 66
e 71 67
e 153 67
e 184 67
e 242 68
e 300 68
e 426 68
e 88 69
e 162 69
e 300 69
e 339 69
e 372 69
e 414 69
e 390 70
e 115 71
e 123 71
e 128 71
e 136 71
e 146 71
e 153 71
e 165 71
e 200 71
e 237 71
e 311 71
e 312 71
e 365 71
e 405 71
e 426 71
e 433 71
e 437 71
e 441 71
e 442 71
e 447 71
e 461 71
e 463 71
e 466 71
e 120 72
e 135 72
e 207 72
e 222 72
e 329 72
e 398 72
e 89 73
e 153 73
e 174 73
e 175 73
e 185 73
e 188 73
e 242 73
e 269 73
e 301 73
e 351 73
e 377 73
e 426 73
e 434 73
e 437 73
e 79 74
e 112 75
e 284 75
e 417 75
e 424 75
e 441 75
e 465 75
e 107 77
e 246 77
e 357 77
e 300 78
e 92 79
e 286 79
e 297 79
e 324 79
e 351 79
e 353 79
e 397 79
e 411 79
e 463 79
e 465 79
e 82 80
e 163 80
e 164 80
e 311 80
e 175 81
e 163 82
e 164 82
e 157 83
e 242 83
e 344 83
e 454 83
e 242 84
e 269 84
e 131 85
e 168 85
e 343 85
e 222 86
e 329 87
e 187 88
e 261 88
e 274 88
e 352 88
e 372 88
e 175 89
e 352 89
e 431 89
e 128 90
e 237 90
e 269 90
e 388 90
e 459 90
e 425 91
e 447 91
e 147 92
e 335 92
e 424 92
e 465 92
e 138 93
e 211 93
e 227 93
e 157 94
e 344 94
e 175 95
e 438 95
e 130 96
e 155 96
e 330 96
e 367 96
e 432 96
e 128 97
e 297 97
e 396 97
e 330 98
e 357 98
e 444 98
e 376 99
e 434 99
e 306 100
e 136 102
e 255 102
e 126 104
e 175 104
e 257 104
e 324 104
e 351 104
e 463 104
e 173 105
e 224 105
e 352 105
e 431 105
e 108 106
e 380 106
e 135 107
e 423 107
e 127 108
e 164 108
e 201 108
e 254 108
e 380 108
e 399 108
e 368 109
e 168 110
e 241 110
e 361 111
e 367 111
e 153 112
e 178 112
e 237 112
e 284 112
e 287 112
e 293 112
e 336 112
e 417 112
e 419 112
e 424 112
e 441 112
e 116 115
e 148 115
e 219 115
e 233 115
e 255 115
e 199 116
e 342 116
e 407 116
e 443 116
e 136 117
e 152 117
e 165 117
e 166 117
e 175 117
e 214 117
e 215 117
e 258 117
e 286 117
e 314 117
e 316 117
e 321 117
e 342 117
e 356 117
e 370 117
e 376 117
e 395 117
e 403 117
e 405 117
e 407 117
e 441 117
e 276 118
e 368 118
e 329 120
e 127 121
e 202 121
e 237 121
e 352 122
e 128 123
e 136 123
e 153 123
e 311 123
e 405 123
e 437 123
e 463 123
e 168 124
e 280 124
e 245 125
e 441 125
e 324 126
e 403 126
e 461 126
e 142 127
e 151 127
e 175 127
e 202 127
e 267 127
e 301 127
e 414 127
e 136 128
e 153 128
e 237 128
e 263 128
e 269 128
e 311 128
e 316 128
e 351 128
e 360 128
e 365 128
e 396 128
e 403 128
e 424 128
e 461 128
e 193 130
e 360 130
e 374 130
e 304 131
e 341 131
e 386 131
e 420 131
e 451 131
e 186 132
e 317 132
e 168 133
e 289 133
e 317 133
e 403 133
e 418 133
e 272 135
e 329 135
e 357 135
e 152 136
e 153 136
e 161 136
e 165 136
e 168 136
e 202 136
e 237 136
e 241 136
e 242 136
e 255 136
e 265 136
e 267 136
e 269 136
e 311 136
e 316 136
e 351 136
e 357 136
e 360 136
e 382 136
e 403 136
e 437 136
e 441 136
e 240 137
e 209 138
e 227 138
e 343 138
e 427 138
e 441 139
e 450 139
e 168 140
e 241 140
e 255 140
e 273 140
e 289 140
e 338 140
e 387 140
e 165 141
e 280 141
e 345 142
e 191 143
e 190 144
e 248 144
e 319 144
e 413 144
e 434 144
e 171 146
e 184 146
e 190 146
e 237 146
e 238 146
e 251 146
e 252 146
e 284 146
e 312 146
e 316 146
e 326 146
e 375 146
e 419 146
e 201 147
e 247 147
e 286 147
e 301 147
e 321 147
e 316 148
e 405 148
e 331 150
e 357 151
e 414 151
e 161 152
e 165 152
e 214 152
e 251 152
e 252 152
e 258 152
e 264 152
e 351 152
e 356 152
e 370 152
e 459 152
e 175 153
e 188 153
e 199 153
e 200 153
e 237 153
e 263 153
e 269 153
e 292 153
e 301 153
e 311 153
e 312 153
e 351 153
e 355 153
e 360 153
e 365 153
e 395 153
e 403 153
e 405 153
e 414 153
e 426 153
e 430 153
e 442 153
e 447 153
e 461 153
e 463 153
e 466 153
e 211 154
e 330 154
e 444 154
e 196 155
e 275 155
e 297 155
e 330 155
e 383 155
e 406 155
e 344 157
e 172 158
e 438 160
e 351 161
e 368 161
e 232 162
e 173 164
e 175 164
e 254 164
e 289 164
e 293 164
e 368 164
e 369 164
e 380 164
e 214 165
e 215 165
e 242 165
e 248 165
e 258 165
e 271 165
e 301 165
e 314 165
e 337 165
e 351 165
e 356 165
e 370 165
e 426 165
e 437 165
e 441 165
e 459 165
e 469 165
e 245 166
e 289 166
e 316 166
e 355 166
e 395 166
e 441 166
e 234 167
e 269 167
e 320 167
e 367 167
e 372 167
e 391 167
e 410 167
e 435 167
e 241 168
e 255 168
e 269 168
e 280 168
e 289 168
e 293 168
e 316 168
e 331 168
e 338 168
e 351 168
e 355 168
e 368 168
e 382 168
e 387 168
e 395 168
e 403 168
e 418 168
e 422 168
e 426 168
e 441 168
e 438 169
e 432 170
e 454 170
e 237 171
e 326 171
e 457 171
e 302 173
e 368 173
e 374 173
e 403 173
e 461 173
e 368 174
e 181 175
e 184 175
e 188 175
e 206 175
e 214 175
e 223 175
e 236 175
e 251 175
e 252 175
e 264 175
e 290 175
e 293 175
e 296 175
e 301 175
e 312 175
e 319 175
e 350 175
e 351 175
e 376 175
e 377 175
e 407 175
e 434 175
e 437 175
e 440 175
e 441 175
e 465 175
e 415 176
e 184 177
e 256 177
e 372 179
e 427 179
e 184 182
e 190 182
e 356 182
e 223 183
e 190 184
e 214 184
e 256 184
e 350 184
e 457 184
e 188 185
e 371 187
e 301 188
e 353 188
e 430 188
e 441 188
e 463 188
e 201 189
e 286 189
e 312 190
e 419 190
e 327 192
e 374 193
e 308 194
e 316 194
e 409 194
e 275 196
e 311 196
e 334 196
e 336 196
e 345 196
e 432 196
e 257 197
e 355 197
e 322 198
e 414 199
e 414 200
e 286 201
e 434 201
e 465 201
e 237 202
e 249 202
e 265 202
e 353 203
e 368 203
e 397 203
e 437 203
e 441 203
e 220 204
e 243 204
e 237 206
e 271 206
e 309 206
e 379 208
e 227 209
e 330 211
e 339 211
e 432 211
e 281 213
e 251 214
e 252 214
e 258 214
e 312 214
e 314 214
e 356 214
e 370 214
e 441 214
e 457 214
e 459 214
e 271 215
e 370 215
e 271 216
e 405 216
e 255 219
e 221 220
e 243 220
e 420 220
e 424 220
e 329 222
e 423 222
e 446 222
e 464 222
e 377 223
e 315 224
e 431 224
e 329 225
e 338 228
e 414 229
e 319 230
e 350 230
e 352 231
e 245 233
e 268 233
e 351 233
e 426 233
e 437 233
e 330 234
e 367 234
e 372 234
e 287 235
e 304 235
e 356 235
e 415 235
e 447 235
e 237 236
e 265 236
e 294 236
e 238 237
e 262 237
e 289 237
e 316 237
e 326 237
e 330 237
e 355 237
e 365 237
e 375 237
e 405 237
e 424 237
e 434 237
e 459 237
e 316 238
e 375 238
e 304 239
e 274 240
e 289 241
e 316 241
e 351 241
e 382 241
e 387 241
e 311 242
e 316 242
e 344 242
e 351 242
e 395 242
e 405 242
e 426 242
e 294 244
e 392 244
e 468 244
e 316 245
e 337 245
e 437 245
e 441 245
e 403 246
e 438 246
e 321 247
e 258 248
e 441 248
e 420 250
e 252 251
e 258 251
e 312 251
e 377 251
e 459 251
e 258 252
e 312 252
e 459 252
e 281 253
e 359 253
e 330 254
e 380 254
e 324 257
e 351 257
e 301 258
e 312 258
e 351 258
e 370 258
e 441 258
e 459 258
e 266 264
e 376 264
e 419 264
e 269 265
e 294 265
e 322 265
e 355 265
e 365 265
e 403 265
e 284 266
e 377 266
e 301 267
e 403 267
e 301 269
e 337 269
e 365 269
e 367 269
e 382 269
e 394 269
e 395 269
e 405 269
e 414 269
e 422 269
e 437 269
e 452 269
e 463 269
e 449 270
e 318 271
e 337 271
e 351 271
e 387 271
e 405 271
e 387 273
e 425 274
e 330 275
e 367 275
e 432 275
e 316 276
e 405 276
e 387 277
e 377 278
e 419 278
e 434 278
e 338 280
e 436 280
e 333 281
e 412 281
e 442 281
e 401 282
e 424 284
e 311 285
e 345 285
e 430 285
e 311 286
e 347 286
e 434 286
e 465 286
e 293 287
e 296 287
e 369 287
e 386 287
e 403 287
e 424 287
e 436 287
e 438 287
e 338 289
e 368 289
e 374 289
e 387 289
e 426 289
e 338 291
e 355 292
e 405 292
e 414 292
e 296 293
e 335 293
e 424 293
e 392 294
e 468 294
e 383 295
e 347 297
e 353 297
e 396 297
e 403 297
e 411 297
e 461 297
e 299 298
e 391 298
e 391 299
e 360 300
e 367 300
e 433 300
e 324 301
e 351 301
e 362 301
e 370 301
e 441 301
e 445 301
e 343 303
e 321 304
e 341 304
e 346 304
e 357 304
e 385 304
e 390 304
e 330 306
e 367 306
e 372 306
e 421 306
e 432 306
e 409 308
e 334 311
e 345 311
e 347 311
e 367 311
e 326 312
e 377 312
e 419 312
e 335 314
e 370 314
e 441 314
e 469 314
e 442 315
e 328 316
e 337 316
e 351 316
e 352 316
e 360 316
e 368 316
e 375 316
e 395 316
e 405 316
e 422 316
e 426 316
e 441 316
e 421 317
e 422 317
e 405 318
e 350 319
e 377 319
e 370 321
e 330 323
e 351 324
e 353 324
e 411 324
e 463 324
e 390 325
e 436 325
e 457 326
e 389 327
e 384 328
e 405 328
e 441 328
e 390 329
e 357 330
e 365 330
e 367 330
e 373 330
e 380 330
e 406 330
e 410 330
e 414 330
e 432 330
e 449 330
e 456 330
e 351 333
e 345 334
e 465 335
e 414 336
e 456 336
e 351 337
e 426 337
e 441 337
e 391 339
e 415 339
e 435 339
e 395 340
e 396 340
e 403 340
e 390 341
e 370 342
e 407 342
e 344 343
e 403 343
e 418 343
e 425 343
e 427 343
e 438 343
e 443 343
e 454 343
e 459 345
e 350 347
e 415 347
e 425 347
e 465 347
e 449 349
e 377 350
e 465 350
e 368 351
e 370 351
e 382 351
e 405 351
e 426 351
e 437 351
e 441 351
e 461 351
e 463 351
e 431 352
e 397 353
e 411 353
e 396 355
e 405 355
e 414 355
e 447 355
e 370 356
e 376 356
e 441 356
e 372 357
e 389 357
e 414 357
e 430 358
e 387 359
e 367 360
e 372 360
e 414 360
e 426 360
e 430 360
e 432 360
e 435 360
e 441 360
e 400 363
e 449 363
e 403 365
e 424 365
e 434 365
e 437 365
e 395 367
e 403 367
e 410 367
e 426 367
e 369 368
e 374 368
e 397 368
e 405 368
e 405 369
e 376 370
e 395 370
e 403 370
e 407 370
e 441 370
e 459 370
e 391 372
e 425 372
e 435 372
e 419 377
e 434 377
e 462 377
e 414 380
e 456 380
e 424 382
e 459 382
e 389 385
e 414 386
e 420 386
e 448 386
e 451 386
e 402 387
e 405 387
e 410 391
e 435 391
e 468 392
e 408 393
e 414 394
e 403 395
e 405 395
e 426 395
e 441 397
e 414 401
e 411 403
e 414 403
e 425 403
e 426 403
e 438 403
e 461 403
e 470 403
e 414 405
e 426 405
e 433 405
e 437 405
e 452 405
e 459 405
e 463 405
e 465 405
e 435 410
e 440 412
e 415 414
e 425 414
e 463 416
e 424 417
e 421 418
e 438 418
e 448 420
e 451 420
e 438 421
e 460 421
e 438 423
e 441 424
e 465 424
e 438 425
e 437 426
e 441 426
e 438 427
e 454 427
e 455 427
e 463 433
e 454 436
e 441 437
e 459 437
e 463 437
e 445 441
e 466 442
e 464 446
e 461 447
e 451 448
